9 9
0 2 100 100 100 100 9 5 5 
2 0 100 100 100 100 7 3 3 
100 100 0 2 2 4 3 2 100 
100 100 2 0 4 2 100 2 2 
100 100 2 4 0 2 5 4 100 
100 100 4 2 2 0 100 4 4 
9 7 3 100 5 100 0 4 100 
5 3 2 2 4 4 4 0 100 
5 3 100 2 100 4 100 100 0 
